sat
(:added-eqs                       2987
 :arith-eq-adapter                188
 :arith-bound-propagations-lp     72
 :arith-branch                    3
 :arith-conflicts                 463
 :arith-cube-calls                1
 :arith-diseq                     128
 :arith-fixed-eqs                 103
 :arith-gcd-calls                 49
 :arith-grobner-calls             40
 :arith-grobner-conflicts         38
 :arith-hnf-calls                 1
 :arith-horner-calls              6
 :arith-horner-conflicts          2
 :arith-horner-cross-nested-forms 5138
 :arith-lower                     651
 :arith-make-feasible             681
 :arith-max-columns               1527
 :arith-max-rows                  639
 :arith-nla-add-bounds            17
 :arith-nla-lemmas                246
 :arith-nla-propagate-bounds      176
 :arith-nla-propagate-eq          4021
 :arith-nra-calls                 8
 :arith-offset-eqs                399
 :arith-patches                   49
 :arith-patches-success           46
 :arith-upper                     864
 :binary-propagations             467
 :conflicts                       62
 :decisions                       897
 :del-clause                      362
 :final-checks                    96
 :max-memory                      65.63
 :memory                          18.45
 :minimized-lits                  5
 :mk-bool-var                     1750
 :mk-clause                       586
 :mk-clause-binary                5554
 :nlsat-conflicts                 633
 :nlsat-propagations              41453
 :nlsat-stages                    34305
 :num-allocs                      377837760
 :num-checks                      1
 :propagations                    946
 :rlimit-count                    1137269
 :sls-arith-steps                 120009
 :sls-ddfw-flips                  273253.00
 :sls-ddfw-reinits                7
 :sls-ddfw-restarts               2
 :sls-ddfw-shifts                 65161.00
 :sls-num-guided-search           51
 :sls-repair-down                 502
 :sls-repair-up                   1104
 :solve-eqs-elim-vars             130
 :solve-eqs-steps                 2209
 :time                            2.26
 :total-time                      2.26)
